1620037800
1620052800
1620124200
1620140700
1620211500
1620224940
1620297000
1620311400
1620383400
1620398520
1620642600
1620656940
1620729000
1620741840
1620815400
1620829920
1621247400
1621261800
1621333800
1621349040
1621420200
1621434600
1621506600
1621521240
1621593000
1621607580
1621938600
1621954560
1622025000
1622040960
1622111400
1622126520
1622197800
1622212200
1622457000
1622471460
